# PBEPBE/6-31G(d,p) Opt SCF=(MaxCycle=300)

title

-1 2
GEOM

